n = 16;
k = 4;
% init = [[12, 6, 11], [3, 14], [15, 7, 13, 9, 2, 16, 5, 4, 1, 8, 10], []];
% goal = [[6, 3], [9, 13, 11], [5, 10, 14, 1, 12, 16], [8, 15, 4, 7, 2]];
start = [8, 16, 14, 1, 4, 11, 13, 10, 2, 0, 0, 6, 9, 0, 7, 5];
end = [12, 0, 0, 7, 10, 3, 2, 15, 13, 14, 0, 16, 11, 1, 4, 0];
